HFSDDW
15	8	4
0	40	1	33	2	84	3	69
0	84	1	22	2	30	3	53
0	94	1	23	2	57	3	42
0	22	1	19	2	86	3	67
0	99	1	26	2	10	3	34
0	27	1	23	2	92	3	29
0	84	1	15	2	39	3	81
0	29	1	59	2	8	3	95
0	94	1	35	2	66	3	64
0	4	1	32	2	3	3	24
0	10	1	64	2	85	3	36
0	11	1	91	2	18	3	32
0	47	1	48	2	49	3	37
0	53	1	51	2	84	3	17
0	40	1	56	2	84	3	70
LBCmax: 481
RELDUE
-1	223	6	4
-1	191	6	2
-1	167	9	9
-1	178	1	4
-1	158	8	1
-1	203	7	4
-1	190	4	5
-1	227	5	3
-1	195	5	5
-1	164	3	4
-1	205	6	4
-1	210	5	2
-1	166	5	4
-1	227	3	8
-1	167	3	8
DDW
203	243
187	195
155	179
173	183
153	163
187	219
173	207
218	236
176	214
151	177
189	221
206	214
158	174
220	234
159	175
